NAME : 	X-n331-k15	
COMMENT : 	"Generated by Uchoa, Pecin, Pessoa, Poggi, Subramanian, and Vidal (2013)"	
TYPE : 	CVRP	
DIMENSION : 	331	
EDGE_WEIGHT_TYPE : 	EUC_2D	
CAPACITY : 	23	
NODE_COORD_SECTION		
1	0	0
2	2	857
3	407	102
4	915	965
5	797	45
6	997	241
7	650	683
8	748	248
9	99	174
10	2	545
11	277	689
12	568	771
13	76	105
14	117	973
15	171	971
16	327	183
17	277	697
18	269	246
19	670	18
20	51	901
21	951	696
22	710	102
23	61	465
24	348	606
25	551	243
26	524	793
27	89	582
28	900	748
29	235	368
30	122	587
31	449	781
32	970	38
33	362	490
34	742	267
35	289	115
36	898	957
37	996	922
38	951	633
39	713	779
40	603	247
41	402	363
42	143	0
43	274	608
44	81	422
45	550	408
46	43	699
47	482	575
48	909	254
49	613	37
50	202	575
51	297	297
52	736	288
53	464	127
54	499	491
55	635	531
56	796	328
57	184	941
58	641	824
59	863	673
60	396	950
61	555	631
62	664	966
63	301	260
64	425	990
65	559	746
66	431	827
67	724	472
68	847	51
69	888	721
70	136	331
71	859	627
72	206	5
73	429	381
74	798	918
75	886	684
76	123	488
77	779	445
78	764	43
79	938	743
80	800	398
81	734	20
82	211	678
83	601	545
84	512	403
85	796	106
86	644	810
87	416	973
88	115	435
89	667	91
90	395	941
91	374	546
92	546	191
93	754	255
94	124	588
95	423	929
96	314	637
97	668	268
98	321	786
99	960	423
100	11	499
101	721	692
102	803	584
103	337	475
104	806	773
105	429	478
106	214	547
107	361	166
108	944	218
109	12	468
110	527	255
111	789	724
112	250	862
113	892	896
114	545	806
115	832	12
116	628	495
117	194	884
118	395	309
119	655	39
120	558	175
121	247	947
122	36	394
123	877	451
124	599	724
125	83	489
126	754	703
127	65	35
128	889	230
129	938	307
130	662	394
131	248	220
132	642	549
133	747	86
134	201	643
135	400	574
136	653	798
137	653	904
138	643	138
139	951	307
140	793	865
141	500	726
142	585	586
143	285	769
144	511	898
145	336	912
146	454	207
147	239	951
148	335	815
149	911	708
150	2	239
151	602	984
152	372	799
153	177	756
154	816	435
155	617	639
156	806	796
157	793	584
158	803	561
159	479	831
160	397	20
161	618	113
162	702	902
163	838	111
164	989	451
165	215	154
166	581	757
167	294	174
168	997	332
169	350	909
170	335	941
171	906	354
172	920	675
173	493	469
174	187	284
175	678	127
176	831	755
177	316	319
178	188	134
179	73	608
180	884	613
181	193	831
182	717	851
183	508	52
184	809	556
185	705	769
186	983	312
187	847	359
188	415	658
189	132	789
190	520	413
191	913	564
192	90	256
193	960	936
194	693	559
195	980	347
196	300	456
197	376	144
198	192	177
199	272	525
200	88	626
201	772	743
202	540	206
203	474	559
204	575	901
205	241	949
206	583	602
207	215	48
208	460	683
209	81	368
210	998	835
211	585	234
212	522	137
213	294	501
214	788	392
215	621	498
216	116	698
217	81	236
218	788	277
219	817	861
220	678	560
221	351	354
222	156	507
223	617	486
224	218	189
225	213	23
226	884	616
227	923	177
228	829	814
229	479	307
230	285	153
231	584	878
232	176	928
233	166	656
234	507	183
235	907	171
236	7	792
237	995	412
238	22	787
239	149	784
240	649	933
241	885	309
242	131	560
243	22	81
244	502	640
245	462	970
246	465	114
247	192	569
248	547	473
249	557	408
250	480	579
251	775	395
252	845	753
253	701	529
254	962	95
255	842	847
256	31	68
257	627	629
258	524	322
259	918	853
260	823	774
261	775	894
262	109	935
263	478	480
264	511	488
265	785	899
266	487	121
267	453	440
268	470	598
269	1	111
270	756	89
271	728	583
272	647	753
273	973	391
274	842	559
275	637	397
276	72	370
277	948	485
278	999	268
279	471	517
280	350	131
281	381	534
282	310	467
283	973	212
284	164	485
285	429	565
286	186	426
287	838	897
288	779	143
289	452	1
290	866	928
291	214	623
292	532	586
293	513	152
294	915	772
295	204	585
296	343	558
297	877	720
298	730	272
299	364	617
300	210	569
301	514	296
302	33	761
303	202	695
304	706	395
305	597	866
306	376	83
307	679	434
308	483	578
309	0	299
310	639	101
311	709	590
312	774	925
313	804	864
314	528	192
315	660	561
316	888	7
317	788	712
318	79	750
319	854	884
320	710	665
321	939	390
322	156	683
323	62	737
324	207	501
325	944	334
326	952	915
327	14	440
328	923	386
329	693	370
330	485	885
331	890	951
DEMAND_SECTION		
1	0	
2	1	
3	1	
4	1	
5	1	
6	1	
7	1	
8	1	
9	1	
10	1	
11	1	
12	1	
13	1	
14	1	
15	1	
16	1	
17	1	
18	1	
19	1	
20	1	
21	1	
22	1	
23	1	
24	1	
25	1	
26	1	
27	1	
28	1	
29	1	
30	1	
31	1	
32	1	
33	1	
34	1	
35	1	
36	1	
37	1	
38	1	
39	1	
40	1	
41	1	
42	1	
43	1	
44	1	
45	1	
46	1	
47	1	
48	1	
49	1	
50	1	
51	1	
52	1	
53	1	
54	1	
55	1	
56	1	
57	1	
58	1	
59	1	
60	1	
61	1	
62	1	
63	1	
64	1	
65	1	
66	1	
67	1	
68	1	
69	1	
70	1	
71	1	
72	1	
73	1	
74	1	
75	1	
76	1	
77	1	
78	1	
79	1	
80	1	
81	1	
82	1	
83	1	
84	1	
85	1	
86	1	
87	1	
88	1	
89	1	
90	1	
91	1	
92	1	
93	1	
94	1	
95	1	
96	1	
97	1	
98	1	
99	1	
100	1	
101	1	
102	1	
103	1	
104	1	
105	1	
106	1	
107	1	
108	1	
109	1	
110	1	
111	1	
112	1	
113	1	
114	1	
115	1	
116	1	
117	1	
118	1	
119	1	
120	1	
121	1	
122	1	
123	1	
124	1	
125	1	
126	1	
127	1	
128	1	
129	1	
130	1	
131	1	
132	1	
133	1	
134	1	
135	1	
136	1	
137	1	
138	1	
139	1	
140	1	
141	1	
142	1	
143	1	
144	1	
145	1	
146	1	
147	1	
148	1	
149	1	
150	1	
151	1	
152	1	
153	1	
154	1	
155	1	
156	1	
157	1	
158	1	
159	1	
160	1	
161	1	
162	1	
163	1	
164	1	
165	1	
166	1	
167	1	
168	1	
169	1	
170	1	
171	1	
172	1	
173	1	
174	1	
175	1	
176	1	
177	1	
178	1	
179	1	
180	1	
181	1	
182	1	
183	1	
184	1	
185	1	
186	1	
187	1	
188	1	
189	1	
190	1	
191	1	
192	1	
193	1	
194	1	
195	1	
196	1	
197	1	
198	1	
199	1	
200	1	
201	1	
202	1	
203	1	
204	1	
205	1	
206	1	
207	1	
208	1	
209	1	
210	1	
211	1	
212	1	
213	1	
214	1	
215	1	
216	1	
217	1	
218	1	
219	1	
220	1	
221	1	
222	1	
223	1	
224	1	
225	1	
226	1	
227	1	
228	1	
229	1	
230	1	
231	1	
232	1	
233	1	
234	1	
235	1	
236	1	
237	1	
238	1	
239	1	
240	1	
241	1	
242	1	
243	1	
244	1	
245	1	
246	1	
247	1	
248	1	
249	1	
250	1	
251	1	
252	1	
253	1	
254	1	
255	1	
256	1	
257	1	
258	1	
259	1	
260	1	
261	1	
262	1	
263	1	
264	1	
265	1	
266	1	
267	1	
268	1	
269	1	
270	1	
271	1	
272	1	
273	1	
274	1	
275	1	
276	1	
277	1	
278	1	
279	1	
280	1	
281	1	
282	1	
283	1	
284	1	
285	1	
286	1	
287	1	
288	1	
289	1	
290	1	
291	1	
292	1	
293	1	
294	1	
295	1	
296	1	
297	1	
298	1	
299	1	
300	1	
301	1	
302	1	
303	1	
304	1	
305	1	
306	1	
307	1	
308	1	
309	1	
310	1	
311	1	
312	1	
313	1	
314	1	
315	1	
316	1	
317	1	
318	1	
319	1	
320	1	
321	1	
322	1	
323	1	
324	1	
325	1	
326	1	
327	1	
328	1	
329	1	
330	1	
331	1	
DEPOT_SECTION		
	1	
	-1	
EOF		
